NAME : CMT12T
TYPE : MVRPB
DIMENSION : 101
VEHICLES : 9
CAPACITY : 200
EDGE_WEIGHT_TYPE : EXACT_2D
NODE_COORD_SECTION
1 40 50
2 45 68
3 45 70
4 42 66
5 42 68
6 42 65
7 40 69
8 40 66
9 38 68
10 38 70
11 35 66
12 35 69
13 25 85
14 22 75
15 22 85
16 20 80
17 20 85
18 18 75
19 15 75
20 15 80
21 30 50
22 30 52
23 28 52
24 28 55
25 25 50
26 25 52
27 25 55
28 23 52
29 23 55
30 20 50
31 20 55
32 10 35
33 10 40
34 8 40
35 8 45
36 5 35
37 5 45
38 2 40
39 0 40
40 0 45
41 35 30
42 35 32
43 33 32
44 33 35
45 32 30
46 30 30
47 30 32
48 30 35
49 28 30
50 28 35
51 26 32
52 25 30
53 25 35
54 44 5
55 42 10
56 42 15
57 40 5
58 40 15
59 38 5
60 38 15
61 35 5
62 50 30
63 50 35
64 50 40
65 48 30
66 48 40
67 47 35
68 47 40
69 45 30
70 45 35
71 95 30
72 95 35
73 53 30
74 92 30
75 53 35
76 45 65
77 90 35
78 88 30
79 88 35
80 87 30
81 85 25
82 85 35
83 75 55
84 72 55
85 70 58
86 68 60
87 66 55
88 65 55
89 65 60
90 63 58
91 60 55
92 60 60
93 67 85
94 65 85
95 65 82
96 62 80
97 60 80
98 60 85
99 58 75
100 55 80
101 55 85
PICKUP_AND_DELIVERY_SECTION
1 0 0 10000000 0 0 0
2 0 0 10000000 0 0 10
3 0 0 10000000 0 0 30
4 0 0 10000000 0 0 10
5 0 0 10000000 0 0 10
6 0 0 10000000 0 0 10
7 0 0 10000000 0 0 20
8 0 0 10000000 0 0 20
9 0 0 10000000 0 0 20
10 0 0 10000000 0 0 10
11 0 0 10000000 0 10 0
12 0 0 10000000 0 0 10
13 0 0 10000000 0 0 20
14 0 0 10000000 0 0 30
15 0 0 10000000 0 0 10
16 0 0 10000000 0 0 40
17 0 0 10000000 0 0 40
18 0 0 10000000 0 0 20
19 0 0 10000000 0 0 20
20 0 0 10000000 0 0 10
21 0 0 10000000 0 10 0
22 0 0 10000000 0 0 20
23 0 0 10000000 0 0 20
24 0 0 10000000 0 0 10
25 0 0 10000000 0 0 10
26 0 0 10000000 0 0 40
27 0 0 10000000 0 0 10
28 0 0 10000000 0 0 10
29 0 0 10000000 0 0 20
30 0 0 10000000 0 0 10
31 0 0 10000000 0 10 0
32 0 0 10000000 0 0 20
33 0 0 10000000 0 0 30
34 0 0 10000000 0 0 40
35 0 0 10000000 0 0 20
36 0 0 10000000 0 0 10
37 0 0 10000000 0 0 10
38 0 0 10000000 0 0 20
39 0 0 10000000 0 0 30
40 0 0 10000000 0 0 20
41 0 0 10000000 0 10 0
42 0 0 10000000 0 0 10
43 0 0 10000000 0 0 20
44 0 0 10000000 0 0 10
45 0 0 10000000 0 0 10
46 0 0 10000000 0 0 10
47 0 0 10000000 0 0 30
48 0 0 10000000 0 0 10
49 0 0 10000000 0 0 10
50 0 0 10000000 0 0 10
51 0 0 10000000 0 10 0
52 0 0 10000000 0 0 10
53 0 0 10000000 0 0 10
54 0 0 10000000 0 0 20
55 0 0 10000000 0 0 40
56 0 0 10000000 0 0 10
57 0 0 10000000 0 0 30
58 0 0 10000000 0 0 40
59 0 0 10000000 0 0 30
60 0 0 10000000 0 0 10
61 0 0 10000000 0 20 0
62 0 0 10000000 0 0 10
63 0 0 10000000 0 0 20
64 0 0 10000000 0 0 50
65 0 0 10000000 0 0 10
66 0 0 10000000 0 0 10
67 0 0 10000000 0 0 10
68 0 0 10000000 0 0 10
69 0 0 10000000 0 0 10
70 0 0 10000000 0 0 10
71 0 0 10000000 0 30 0
72 0 0 10000000 0 0 20
73 0 0 10000000 0 0 10
74 0 0 10000000 0 0 10
75 0 0 10000000 0 0 50
76 0 0 10000000 0 0 20
77 0 0 10000000 0 0 10
78 0 0 10000000 0 0 10
79 0 0 10000000 0 0 20
80 0 0 10000000 0 0 10
81 0 0 10000000 0 10 0
82 0 0 10000000 0 0 30
83 0 0 10000000 0 0 20
84 0 0 10000000 0 0 10
85 0 0 10000000 0 0 20
86 0 0 10000000 0 0 30
87 0 0 10000000 0 0 10
88 0 0 10000000 0 0 20
89 0 0 10000000 0 0 30
90 0 0 10000000 0 0 10
91 0 0 10000000 0 10 0
92 0 0 10000000 0 0 10
93 0 0 10000000 0 0 20
94 0 0 10000000 0 0 40
95 0 0 10000000 0 0 10
96 0 0 10000000 0 0 30
97 0 0 10000000 0 0 10
98 0 0 10000000 0 0 30
99 0 0 10000000 0 0 20
100 0 0 10000000 0 0 10
101 0 0 10000000 0 20 0
DEPOT_SECTION
1 
-1
EOF
